path="/mnt/array/daga_data/Github/gnn-rl-for-amod/saved_files/cplex_logs/rebalancing/scenario_nyc4/res_4.dat";
edgeAttr={<0, 1, 1>, <0, 2, 1>, <0, 3, 2>, <0, 4, 2>, <0, 5, 2>, <0, 6, 2>, <0, 7, 3>, <0, 8, 3>, <0, 9, 3>, <0, 10, 3>, <0, 11, 4>, <0, 12, 4>, <0, 13, 3>, <0, 14, 4>, <0, 15, 5>, <1, 0, 1>, <1, 2, 1>, <1, 3, 1>, <1, 4, 2>, <1, 5, 2>, <1, 6, 2>, <1, 7, 3>, <1, 8, 3>, <1, 9, 3>, <1, 10, 3>, <1, 11, 4>, <1, 12, 4>, <1, 13, 3>, <1, 14, 4>, <1, 15, 4>, <2, 0, 2>, <2, 1, 1>, <2, 3, 1>, <2, 4, 3>, <2, 5, 2>, <2, 6, 2>, <2, 7, 2>, <2, 8, 4>, <2, 9, 3>, <2, 10, 3>, <2, 11, 3>, <2, 12, 5>, <2, 13, 4>, <2, 14, 4>, <2, 15, 4>, <3, 0, 2>, <3, 1, 2>, <3, 2, 1>, <3, 4, 3>, <3, 5, 3>, <3, 6, 2>, <3, 7, 2>, <3, 8, 4>, <3, 9, 4>, <3, 10, 3>, <3, 11, 3>, <3, 12, 5>, <3, 13, 5>, <3, 14, 5>, <3, 15, 4>, <4, 0, 2>, <4, 1, 2>, <4, 2, 2>, <4, 3, 3>, <4, 5, 1>, <4, 6, 2>, <4, 7, 2>, <4, 8, 2>, <4, 9, 2>, <4, 10, 2>, <4, 11, 3>, <4, 12, 2>, <4, 13, 3>, <4, 14, 3>, <4, 15, 4>, <5, 0, 2>, <5, 1, 2>, <5, 2, 2>, <5, 3, 2>, <5, 4, 1>, <5, 6, 2>, <5, 7, 2>, <5, 8, 2>, <5, 9, 2>, <5, 10, 2>, <5, 11, 3>, <5, 12, 3>, <5, 13, 2>, <5, 14, 3>, <5, 15, 3>, <6, 0, 2>, <6, 1, 2>, <6, 2, 2>, <6, 3, 2>, <6, 4, 2>, <6, 5, 1>, <6, 7, 1>, <6, 8, 3>, <6, 9, 2>, <6, 10, 2>, <6, 11, 2>, <6, 12, 3>, <6, 13, 3>, <6, 14, 3>, <6, 15, 3>, <7, 0, 3>, <7, 1, 3>, <7, 2, 2>, <7, 3, 2>, <7, 4, 2>, <7, 5, 2>, <7, 6, 2>, <7, 8, 3>, <7, 9, 3>, <7, 10, 2>, <7, 11, 2>, <7, 12, 4>, <7, 13, 4>, <7, 14, 3>, <7, 15, 3>, <8, 0, 3>, <8, 1, 3>, <8, 2, 3>, <8, 3, 3>, <8, 4, 1>, <8, 5, 2>, <8, 6, 3>, <8, 7, 3>, <8, 9, 2>, <8, 10, 2>, <8, 11, 2>, <8, 12, 1>, <8, 13, 2>, <8, 14, 2>, <8, 15, 3>, <9, 0, 3>, <9, 1, 3>, <9, 2, 3>, <9, 3, 4>, <9, 4, 2>, <9, 5, 2>, <9, 6, 2>, <9, 7, 3>, <9, 8, 2>, <9, 10, 2>, <9, 11, 2>, <9, 12, 2>, <9, 13, 1>, <9, 14, 2>, <9, 15, 2>, <10, 0, 4>, <10, 1, 3>, <10, 2, 3>, <10, 3, 3>, <10, 4, 3>, <10, 5, 2>, <10, 6, 2>, <10, 7, 2>, <10, 8, 2>, <10, 9, 2>, <10, 11, 2>, <10, 12, 2>, <10, 13, 2>, <10, 14, 2>, <10, 15, 2>, <11, 0, 4>, <11, 1, 4>, <11, 2, 3>, <11, 3, 2>, <11, 4, 3>, <11, 5, 3>, <11, 6, 2>, <11, 7, 2>, <11, 8, 2>, <11, 9, 2>, <11, 10, 2>, <11, 12, 2>, <11, 13, 3>, <11, 14, 2>, <11, 15, 1>, <12, 0, 3>, <12, 1, 4>, <12, 2, 4>, <12, 3, 4>, <12, 4, 2>, <12, 5, 3>, <12, 6, 3>, <12, 7, 4>, <12, 8, 1>, <12, 9, 2>, <12, 10, 2>, <12, 11, 3>, <12, 13, 1>, <12, 14, 2>, <12, 15, 2>, <13, 0, 5>, <13, 1, 3>, <13, 2, 4>, <13, 3, 5>, <13, 4, 3>, <13, 5, 3>, <13, 6, 3>, <13, 7, 3>, <13, 8, 2>, <13, 9, 2>, <13, 10, 2>, <13, 11, 2>, <13, 12, 2>, <13, 14, 1>, <13, 15, 2>, <14, 0, 5>, <14, 1, 4>, <14, 2, 4>, <14, 3, 4>, <14, 4, 3>, <14, 5, 3>, <14, 6, 3>, <14, 7, 3>, <14, 8, 2>, <14, 9, 2>, <14, 10, 2>, <14, 11, 2>, <14, 12, 2>, <14, 13, 1>, <14, 15, 1>, <15, 0, 5>, <15, 1, 5>, <15, 2, 4>, <15, 3, 4>, <15, 4, 4>, <15, 5, 3>, <15, 6, 3>, <15, 7, 3>, <15, 8, 3>, <15, 9, 2>, <15, 10, 2>, <15, 11, 2>, <15, 12, 2>, <15, 13, 2>, <15, 14, 2>};
accInitTuple={<0, 1>, <1, 71>, <2, 6>, <3, 0>, <4, 34>, <5, 51>, <6, 88>, <7, 61>, <8, 0>, <9, 0>, <10, 43>, <11, 62>, <12, 144>, <13, 36>, <14, 0>, <15, 12>};
accRLTuple={<0, 94>, <1, 16>, <2, 38>, <3, 6>, <4, 66>, <5, 22>, <6, 134>, <7, 8>, <8, 46>, <9, 6>, <10, 3>, <11, 36>, <12, 39>, <13, 26>, <14, 40>, <15, 22>};
